qbf_easy_train/easy_5833_UNSAT.qdimacs
p cnf 49 146
a 48 40 3 0
e 1 2 4 5 6 7 8 9 10 11 12 13 14 15 16 17 18 19 20 21 22 23 24 25 26 27 28 29 30 31 32 33 34 35 36 37 38 39 41 42 43 44 45 46 47 49 0
3 -1 0
3 2 0
1 -2 -3 0
5 -3 0
5 -4 0
3 4 -5 0
-6 -1 0
-6 1 0
-7 6 0
-7 -1 0
-6 1 7 0
-9 1 0
-9 8 0
-1 -8 9 0
-10 -4 0
-10 -9 0
4 9 10 0
11 10 0
11 -4 0
-10 4 -11 0
-12 11 0
-12 6 0
-11 -6 12 0
13 -7 0
13 -12 0
7 12 -13 0
-14 -13 0
-14 -3 0
13 3 14 0
-14 3 -15 0
14 -3 -15 0
-14 -3 15 0
14 3 15 0
6 -14 -16 0
-6 14 -16 0
6 14 16 0
-6 -14 16 0
-17 -15 0
-17 -16 0
15 16 17 0
19 -2 0
19 18 0
2 -18 -19 0
-20 -9 0
-20 -2 0
9 2 20 0
21 -19 0
21 20 0
19 -20 -21 0
23 -18 0
23 7 0
18 -7 -23 0
-24 -23 0
-24 -3 0
23 3 24 0
25 22 0
25 -24 0
-22 24 -25 0
2 -1 -26 0
-2 1 -26 0
2 1 26 0
-2 -1 26 0
27 -25 0
27 -26 0
25 26 -27 0
28 21 0
28 27 0
-21 -27 -28 0
-17 -28 -29 0
17 28 -29 0
-17 28 29 0
17 -28 29 0
30 24 0
30 -8 0
-24 8 -30 0
-11 30 -31 0
11 -30 -31 0
-11 -30 31 0
11 30 31 0
-34 33 0
-34 -7 0
-33 7 34 0
35 32 0
35 -34 0
-32 34 -35 0
36 -12 0
36 -14 0
12 14 -36 0
-37 -36 0
-37 -19 0
36 19 37 0
38 9 0
38 -14 0
-9 14 -38 0
-39 37 0
-39 38 0
-37 -38 39 0
35 39 -40 0
-35 -39 -40 0
35 -39 40 0
-35 39 40 0
41 33 0
41 7 0
-33 -7 -41 0
-20 -41 -42 0
20 41 -42 0
-20 41 42 0
20 -41 42 0
32 4 -43 0
-32 -4 -43 0
32 -4 43 0
-32 4 43 0
-43 -10 -44 0
43 10 -44 0
-43 10 44 0
43 -10 44 0
45 -42 0
45 -44 0
42 44 -45 0
46 -40 0
46 45 0
40 -45 -46 0
47 31 0
47 46 0
-31 -46 -47 0
-29 47 -48 0
29 -47 -48 0
-29 -47 48 0
29 47 48 0
49 5 0
49 -48 0
-5 48 -49 0
47 -16 0
7 -35 21 0
-3 40 -42 26 -31 14 45 0
43 1 33 7 2 0
8 -42 26 19 -23 -3 -40 -37 0
18 2 -13 0
6 -49 -21 14 -19 0
-26 19 6 -8 0
-43 -26 38 0
25 -31 -24 38 -17 -27 13 0
-48 33 43 32 0
9 -45 18 30 -47 33 -22 0
46 -6 42 0
49 0
