sat_easy_train/easy_5833_UNSAT.dimacs
p cnf 139 475
4 -2 0
4 3 0
2 -3 -4 0
7 5 0
7 -6 0
-5 6 -7 0
8 4 0
8 7 0
-4 -7 -8 0
-10 8 0
-10 -9 0
-8 9 10 0
-12 -10 0
-12 11 0
10 -11 12 0
13 1 0
13 12 0
-1 -12 -13 0
6 -9 -14 0
-6 9 -14 0
6 9 14 0
-6 -9 14 0
-6 -14 -15 0
6 14 -15 0
-6 14 15 0
6 -14 15 0
3 -15 -16 0
-3 15 -16 0
3 15 16 0
-3 -15 16 0
13 16 -17 0
-13 -16 -17 0
13 -16 17 0
-13 16 17 0
-20 -18 0
-20 -19 0
18 19 20 0
20 19 -21 0
-20 -19 -21 0
20 -19 21 0
-20 19 21 0
5 -7 -23 0
-5 7 -23 0
5 7 23 0
-5 -7 23 0
24 -22 0
24 23 0
22 -23 -24 0
-25 -21 0
-25 24 0
21 -24 25 0
-27 26 0
-27 7 0
-26 -7 27 0
28 9 0
28 -27 0
-9 27 -28 0
25 -28 -29 0
-25 28 -29 0
25 28 29 0
-25 -28 29 0
-31 2 0
-31 -30 0
-2 30 31 0
32 -31 0
32 27 0
31 -27 -32 0
33 -32 0
33 8 0
32 -8 -33 0
35 -2 0
35 -22 0
2 22 -35 0
36 -34 0
36 -35 0
34 35 -36 0
37 -33 0
37 -36 0
33 36 -37 0
38 -6 0
38 37 0
6 -37 -38 0
-30 4 -39 0
30 -4 -39 0
-30 -4 39 0
30 4 39 0
40 -8 0
40 -39 0
8 39 -40 0
-41 -38 0
-41 -40 0
38 40 41 0
-42 29 0
-42 -41 0
-29 41 42 0
43 17 0
43 42 0
-17 -42 -43 0
44 -35 0
44 23 0
35 -23 -44 0
-45 -44 0
-45 5 0
44 -5 45 0
46 43 0
46 -45 0
-43 45 -46 0
47 -5 0
47 -32 0
5 32 -47 0
-47 -12 -48 0
47 12 -48 0
-47 12 48 0
47 -12 48 0
-32 34 -49 0
32 -34 -49 0
-32 -34 49 0
32 34 49 0
-3 49 -50 0
3 -49 -50 0
-3 -49 50 0
3 49 50 0
-14 -51 0
14 -51 0
-51 19 -52 0
51 -19 -52 0
-51 -19 52 0
51 19 52 0
-53 -52 0
-53 39 0
52 -39 53 0
54 50 0
54 -53 0
-50 53 -54 0
3 34 -55 0
-3 -34 -55 0
3 -34 55 0
-3 34 55 0
54 55 -56 0
-54 -55 -56 0
54 -55 56 0
-54 55 56 0
-57 -19 0
-57 -44 0
19 44 57 0
-57 39 -58 0
57 -39 -58 0
-57 -39 58 0
57 39 58 0
59 -33 0
59 58 0
33 -58 -59 0
61 27 0
61 60 0
-27 -60 -61 0
-62 -61 0
-62 -34 0
61 34 62 0
63 -14 0
63 -30 0
14 30 -63 0
-64 -62 0
-64 63 0
62 -63 64 0
65 59 0
65 -64 0
-59 64 -65 0
-7 22 -66 0
7 -22 -66 0
-7 -22 66 0
7 22 66 0
-67 -65 0
-67 -66 0
65 66 67 0
56 -67 -68 0
-56 67 -68 0
56 67 68 0
-56 -67 68 0
48 68 -69 0
-48 -68 -69 0
48 -68 69 0
-48 68 69 0
-70 -30 0
-70 -3 0
30 3 70 0
-22 -70 -71 0
22 70 -71 0
-22 70 71 0
22 -70 71 0
72 47 0
72 -71 0
-47 71 -72 0
-73 -59 0
-73 72 0
59 -72 73 0
75 -44 0
75 61 0
44 -61 -75 0
-76 74 0
-76 -75 0
-74 75 76 0
-77 -76 0
-77 -65 0
76 65 77 0
-71 -64 -78 0
71 64 -78 0
-71 64 78 0
71 -64 78 0
-79 -77 0
-79 -78 0
77 78 79 0
-80 -73 0
-80 79 0
73 -79 80 0
82 18 0
82 39 0
-18 -39 -82 0
82 -60 -83 0
-82 60 -83 0
82 60 83 0
-82 -60 83 0
84 81 0
84 83 0
-81 -83 -84 0
85 -60 0
85 -84 0
60 84 -85 0
-3 81 -86 0
3 -81 -86 0
-3 -81 86 0
3 81 86 0
86 -59 -87 0
-86 59 -87 0
86 59 87 0
-86 -59 87 0
-85 87 -88 0
85 -87 -88 0
-85 -87 88 0
85 87 88 0
-89 80 0
-89 88 0
-80 -88 89 0
90 -30 0
90 -60 0
30 60 -90 0
91 -51 0
91 35 0
51 -35 -91 0
92 91 0
92 18 0
-91 -18 -92 0
-93 -90 0
-93 -92 0
90 92 93 0
94 89 0
94 -93 0
-89 93 -94 0
-95 -69 0
-95 94 0
69 -94 95 0
96 81 0
96 -11 0
-81 11 -96 0
-97 -96 0
-97 30 0
96 -30 97 0
-95 -97 -98 0
95 97 -98 0
-95 97 98 0
95 -97 98 0
6 -61 -99 0
-6 61 -99 0
6 61 99 0
-6 -61 99 0
-81 -99 -100 0
81 99 -100 0
-81 99 100 0
81 -99 100 0
-30 -34 -101 0
30 34 -101 0
-30 34 101 0
30 -34 101 0
-100 101 -102 0
100 -101 -102 0
-100 -101 102 0
100 101 102 0
103 76 0
103 -32 0
-76 32 -103 0
104 -102 0
104 -103 0
102 103 -104 0
18 -30 -105 0
-18 30 -105 0
18 30 105 0
-18 -30 105 0
-105 -82 -106 0
105 82 -106 0
-105 82 106 0
105 -82 106 0
30 106 -107 0
-30 -106 -107 0
30 -106 107 0
-30 106 107 0
107 -14 -108 0
-107 14 -108 0
107 14 108 0
-107 -14 108 0
104 108 -109 0
-104 -108 -109 0
104 -108 109 0
-104 108 109 0
98 109 -110 0
-98 -109 -110 0
98 -109 110 0
-98 109 110 0
111 83 0
111 -105 0
-83 105 -111 0
112 -60 0
112 65 0
60 -65 -112 0
113 61 0
113 -32 0
-61 32 -113 0
-114 -31 0
-114 113 0
31 -113 114 0
-115 112 0
-115 -114 0
-112 114 115 0
111 -115 -116 0
-111 115 -116 0
111 115 116 0
-111 -115 116 0
-6 83 -117 0
6 -83 -117 0
-6 -83 117 0
6 83 117 0
4 -117 -118 0
-4 117 -118 0
4 117 118 0
-4 -117 118 0
-116 -118 -119 0
116 118 -119 0
-116 118 119 0
116 -118 119 0
-23 -120 0
23 -120 0
-121 96 0
-121 120 0
-96 -120 121 0
-101 2 -122 0
101 -2 -122 0
-101 -2 122 0
101 2 122 0
-123 51 0
-123 -71 0
-51 71 123 0
-123 3 -124 0
123 -3 -124 0
-123 -3 124 0
123 3 124 0
-125 122 0
-125 -124 0
-122 124 125 0
126 121 0
126 125 0
-121 -125 -126 0
-127 -74 0
-127 101 0
74 -101 127 0
128 -127 0
128 -127 0
127 -128 0
49 -34 -129 0
-49 34 -129 0
49 34 129 0
-49 -34 129 0
130 -129 0
130 39 0
129 -39 -130 0
131 -128 0
131 -130 0
128 130 -131 0
132 -11 0
132 5 0
11 -5 -132 0
-133 -31 0
-133 -113 0
31 113 133 0
-134 132 0
-134 -133 0
-132 133 134 0
-131 -134 -135 0
131 134 -135 0
-131 134 135 0
131 -134 135 0
-126 135 -136 0
126 -135 -136 0
-126 -135 136 0
126 135 136 0
119 136 -137 0
-119 -136 -137 0
119 -136 137 0
-119 136 137 0
-138 -110 0
-138 137 0
110 -137 138 0
139 46 0
139 -138 0
-46 138 -139 0
74 83 0
-27 101 -100 -63 -113 0
20 56 9 0
-77 132 -86 0
63 -85 -41 -21 123 0
68 -71 124 61 36 0
-92 -46 26 116 44 34 0
57 -29 72 0
-45 10 134 25 -44 0
59 -8 -109 -90 0
-114 126 26 18 -99 72 0
-54 -101 31 0
56 80 2 78 -135 -66 0
-84 -13 -6 -26 0
54 -126 52 118 -61 0
7 -126 108 131 64 0
76 91 0
-43 -86 -107 -44 0
69 -57 -45 -84 100 0
-24 53 0
130 -53 128 0
-14 51 -120 -99 0
-13 -128 0
-52 46 -55 4 -2 0
71 -56 78 -68 11 17 0
84 -49 -109 0
-104 -98 -41 -83 -27 0
-92 61 52 88 0
-54 -124 0
-39 122 -79 -116 48 0
-27 -12 -99 82 -59 0
-39 106 -100 53 -131 0
-112 128 -42 117 0
126 1 0
-118 -83 29 0
-23 107 34 48 -104 91 0
49 -124 -45 134 0
128 -65 0
116 -30 0
82 -90 -75 0
104 123 66 0
-20 116 106 117 -115 0
-126 47 0
-125 -27 0
30 -58 0
-76 -52 -104 102 -82 53 0
60 -122 58 -71 0
94 92 57 112 0
37 101 14 0
-49 23 -82 -37 -86 0
-93 -117 120 0
53 91 19 0
-137 69 7 -12 0
-5 103 -84 38 0
107 122 71 3 -1 39 0
-110 57 -29 -71 -84 0
-16 113 135 105 -3 0
-2 -131 55 -24 137 -128 0
58 26 0
81 107 48 6 46 0
74 92 -91 33 53 0
-139 -31 0
139 0
